
  32    4
  10   10   10   10

   0   0   0   0   0   9 2 3 4 5 6 7 9 12 13 
   4   1   1   0   1  10 30 29 28 27 24 19 15 14 11 8 
   9   2   0   1   7  12 31 29 27 25 24 23 20 19 17 16 15 14 
   3   3   0   9   4   8 28 26 25 24 23 21 18 17 
   2   2   0   4   7   7 30 28 25 23 20 18 17 
   9   4   0   3   6   4 26 21 17 10 
   9   4   4   8   0   5 27 25 20 18 17 
   9   6   3   0   3   3 26 22 17 
   6   0   2   2   2   3 24 23 17 
   8   0   1   6   3   2 22 19 
   9   0   7   2   5   2 20 18 
  10   4   0   5   4   2 22 17 
   4   0   2   3   4   2 19 17 
   6   4   0   5   3   1 21 
   4   5   0   1   4   1 18 
   3   2   7   6   0   1 18 
  10   0   5   4   4   1 32
   2   7   5   0   6   1 32
   7   6   2   6   0   1 32
   4   0   8   4   4   1 32
   7   2   6   0   4   1 32
   4   6   2   3   0   1 32
  10   0   4   4   6   1 32
   9   3   5   3   0   1 32
   1   4   0   1   2   1 32
   4   2   3   0   2   1 32
   1   5   7   0   5   1 32
  10   1   2   0   2   1 32
   7   7   0   4   3   1 32
  10   7   3   4   0   1 32
   8   5   5   0   5   1 32
   0   0   0   0   0   0 
